Maximize
  - 2.7324678246606 edge_0_1_0_0 - 3.13573122054 edge_0_2_0_0
   - 2.8772698273638 edge_0_3_0_0 - 1.6407590768865 edge_0_4_0_0
   - 2.8310064054684 edge_0_5_0_0 - 2.6735164976888 edge_0_6_0_0
   - 3.5711448756775 edge_0_7_0_0 - 4.06912 edge_0_9_0_0
   - 3.6055050308752 edge_0_11_0_0 - 1.3519720267019 edge_0_13_0_0
   - 4.362679565167 edge_0_15_0_0 + 0.1560069506931347 edge_1_2_0_0
   + 0.1645609092568501 edge_1_3_0_0 - 0.0932850979437039 edge_1_4_0_0
   - 0.5437499777173148 edge_1_6_0_0 + 0.00177243925331838 edge_1_7_0_0
   - 0.33558850750376 edge_1_9_0_0 - 0.283291848388904 edge_1_11_0_0
   - 0.1420172553037112 edge_1_13_0_0 - 0.3126288143317063 edge_2_1_0_0
   + 0.106054059909636 edge_2_3_0_0 - 0.3865938011086939 edge_2_4_0_0
   - 0.863579890832639 edge_2_5_0_0 - 0.6064447603566201 edge_2_6_0_0
   + 0.0499382670821802 edge_2_7_0_0 - 1.0877367854025 edge_2_9_0_0
   - 0.2601681425288235 edge_2_11_0_0 - 0.6880277647513404 edge_2_13_0_0
   - 1.109342944460557 edge_2_15_0_0 - 0.6598158707810571 edge_2_16_0_0
   + 0.6423975356995799 edge_3_1_0_0 + 1.0535910179988 edge_3_2_0_0
   + 0.74203764382176 edge_3_4_0_0 + 0.1279661607780467 edge_3_5_0_0
   + 0.7667933973986312 edge_3_6_0_0 + 1.072631443274394 edge_3_7_0_0
   - 0.6357704567913542 edge_3_8_0_0 + 0.48861403742845 edge_3_9_0_0
   + 0.052616295942911 edge_3_10_0_0 - 0.0767106768772391 edge_3_11_0_0
   - 0.1991691716915917 edge_3_13_0_0 - 1.320177104974969 edge_3_14_0_0
   - 0.4135348899412375 edge_3_15_0_0 + 1.4424349226112 edge_3_16_0_0
   + 1.364890819111092 edge_4_1_0_0 + 3.46200131748367 edge_4_2_0_0
   + 2.8981386088928 edge_4_3_0_0 + 1.490825638859631 edge_4_5_0_0
   + 3.074720259941283 edge_4_6_0_0 + 2.192776070875126 edge_4_7_0_0
   + 1.074158662377797 edge_4_8_0_0 + 2.259606528782 edge_4_9_0_0
   + 0.6239405752754101 edge_4_10_0_0 + 2.540395209753006 edge_4_11_0_0
   - 0.3185775065640934 edge_4_12_0_0 + 2.689959478492431 edge_4_13_0_0
   + 0.0422903618997194 edge_4_14_0_0 + 0.8032834894700654 edge_4_15_0_0
   + 6.372184511170767 edge_4_16_0_0 - 0.8891220020305861 edge_5_1_0_0
   - 0.2727846178548973 edge_5_2_0_0 - 0.1298809836217382 edge_5_3_0_0
   - 0.2893073840398735 edge_5_4_0_0 + 0.668837589818956 edge_5_6_0_0
   + 0.4063681999762008 edge_5_7_0_0 - 0.2932819658998597 edge_5_8_0_0
   + 0.1378845133762024 edge_5_9_0_0 - 0.2125629512673132 edge_5_11_0_0
   - 0.0496278400435031 edge_5_13_0_0 - 0.5753149956367315 edge_5_15_0_0
   - 1.171058485801035 edge_5_16_0_0 + 0.538077451882978 edge_6_1_0_0
   + 1.624431281943723 edge_6_2_0_0 + 1.35533716733972 edge_6_3_0_0
   + 0.7832037796127351 edge_6_4_0_0 + 4.152263521702717 edge_6_5_0_0
   + 2.888146000308227 edge_6_7_0_0 + 0.4238462470746042 edge_6_8_0_0
   + 3.0094096388708 edge_6_9_0_0 + 0.3233131983188038 edge_6_10_0_0
   + 0.4609165376279288 edge_6_11_0_0 - 0.9107849541324687 edge_6_12_0_0
   + 0.9374127561220826 edge_6_13_0_0 - 0.0975754487409947 edge_6_14_0_0
   + 0.7960230680048404 edge_6_15_0_0 + 3.403477407089156 edge_6_16_0_0
   - 1.80773806827825 edge_7_1_0_0 - 0.408891911444039 edge_7_2_0_0
   - 1.125871531551806 edge_7_3_0_0 + 0.3020253977578173 edge_7_4_0_0
   - 0.2432558606270024 edge_7_5_0_0 - 0.4801927636328593 edge_7_6_0_0
   - 0.1764884286340318 edge_7_8_0_0 + 0.4613027707695 edge_7_9_0_0
   + 0.5209892014163262 edge_7_11_0_0 - 0.0505520522506377 edge_7_15_0_0
   + 0.4826827304464658 edge_7_16_0_0 + 0.2334890057982599 edge_8_7_0_0
   + 0.5902461108292799 edge_8_9_0_0 - 0.0133761496112832 edge_8_11_0_0
   + 0.4150951378327709 edge_8_13_0_0 - 0.8280023900918619 edge_8_14_0_0
   - 0.3025578264636715 edge_8_15_0_0 - 0.8035209024808598 edge_8_16_0_0
   - 0.6002882186428501 edge_9_1_0_0 + 0.78217505332215 edge_9_2_0_0
   - 0.43348779192576 edge_9_3_0_0 + 0.8272255573435999 edge_9_4_0_0
   + 1.1697490144812 edge_9_5_0_0 + 0.49028394116592 edge_9_6_0_0
   + 0.51668282615478 edge_9_7_0_0 + 3.6192471535363 edge_9_8_0_0
   + 0.24500211356726 edge_9_10_0_0 + 0.8651811508606401 edge_9_11_0_0
   + 0.2829880584613093 edge_9_13_0_0 + 0.050808891401444 edge_9_14_0_0
   + 0.58622878599656 edge_9_15_0_0 + 2.165692376736 edge_9_16_0_0
   - 1.0865131652973 edge_10_9_0_0 - 0.0150072530653483 edge_10_11_0_0
   - 0.1321180002919289 edge_11_2_0_0 - 0.7074979060394999 edge_11_3_0_0
   - 0.0654554272657548 edge_11_4_0_0 - 1.03916964797193 edge_11_6_0_0
   - 0.1717019956915099 edge_11_7_0_0 - 0.2003884400462412 edge_11_8_0_0
   - 0.30493104917088 edge_11_9_0_0 + 0.1512398548474878 edge_11_10_0_0
   + 0.0555110066021938 edge_11_12_0_0 + 0.1024452120417171 edge_11_13_0_0
   - 0.5384040218880835 edge_11_14_0_0 - 0.2367035705376145 edge_11_15_0_0
   - 0.0232927206591601 edge_11_16_0_0 - 0.5880053702791221 edge_12_11_0_0
   - 0.0779987232514054 edge_12_14_0_0 - 0.3459189535937742 edge_12_15_0_0
   - 0.6748134918223759 edge_13_1_0_0 + 0.7177807177982954 edge_13_2_0_0
   + 0.068498443098224 edge_13_3_0_0 - 0.6073407673341819 edge_13_4_0_0
   - 0.1921916868693564 edge_13_5_0_0 - 0.464816946821922 edge_13_6_0_0
   - 0.0913976526699787 edge_13_7_0_0 + 0.771545734433384 edge_13_8_0_0
   + 0.3816166260998 edge_13_9_0_0 + 1.397355064514136 edge_13_10_0_0
   + 2.08046564109913 edge_13_11_0_0 + 3.577486118974195 edge_13_12_0_0
   + 0.9367649902992058 edge_13_14_0_0 + 2.850204792367108 edge_13_15_0_0
   + 2.987288335696844 edge_13_16_0_0 + 1.336913461300199 edge_14_15_0_0
   + 0.2986639998917336 edge_14_16_0_0 - 0.8085653426619774 edge_15_1_0_0
   + 0.092450603021304 edge_15_2_0_0 - 2.41883440752483 edge_15_3_0_0
   + 0.3732656778872719 edge_15_4_0_0 - 0.6758487316181125 edge_15_5_0_0
   - 0.0701631257755499 edge_15_6_0_0 - 0.4871269476822153 edge_15_7_0_0
   + 0.5412562444838249 edge_15_8_0_0 + 0.39638125756432 edge_15_9_0_0
   - 0.2236378247852638 edge_15_10_0_0 + 0.5957025775476615 edge_15_11_0_0
   + 0.999546168054734 edge_15_12_0_0 + 0.3283753381194623 edge_15_13_0_0
   + 2.895617836069587 edge_15_14_0_0 + 3.706610146849252 edge_15_15_0_0
   + 1.3107084214292 edge_15_16_0_0 - 0.9253088581438946 edge_16_14_0_0
   - 1.175586234830565 edge_16_15_0_0
Subject To
 one_parent_1: edge_0_1_0_0 + edge_2_1_0_0 + edge_3_1_0_0 + edge_4_1_0_0
   + edge_5_1_0_0 + edge_6_1_0_0 + edge_7_1_0_0 + edge_9_1_0_0
   + edge_13_1_0_0 + edge_15_1_0_0 = 1
 consume_one_flow_unit_1: flow_0_1_0_0 - flow_1_2_0_0 - flow_1_3_0_0
   - flow_1_4_0_0 - flow_1_6_0_0 - flow_1_7_0_0 - flow_1_9_0_0
   - flow_1_11_0_0 - flow_1_13_0_0 + flow_2_1_0_0 + flow_3_1_0_0
   + flow_4_1_0_0 + flow_5_1_0_0 + flow_6_1_0_0 + flow_7_1_0_0
   + flow_9_1_0_0 + flow_13_1_0_0 + flow_15_1_0_0 = 1
 one_parent_2: edge_0_2_0_0 + edge_1_2_0_0 + edge_3_2_0_0 + edge_4_2_0_0
   + edge_5_2_0_0 + edge_6_2_0_0 + edge_7_2_0_0 + edge_9_2_0_0
   + edge_11_2_0_0 + edge_13_2_0_0 + edge_15_2_0_0 = 1
 consume_one_flow_unit_2: flow_0_2_0_0 + flow_1_2_0_0 - flow_2_1_0_0
   - flow_2_3_0_0 - flow_2_4_0_0 - flow_2_5_0_0 - flow_2_6_0_0
   - flow_2_7_0_0 - flow_2_9_0_0 - flow_2_11_0_0 - flow_2_13_0_0
   - flow_2_15_0_0 - flow_2_16_0_0 + flow_3_2_0_0 + flow_4_2_0_0
   + flow_5_2_0_0 + flow_6_2_0_0 + flow_7_2_0_0 + flow_9_2_0_0
   + flow_11_2_0_0 + flow_13_2_0_0 + flow_15_2_0_0 = 1
 one_parent_3: edge_0_3_0_0 + edge_1_3_0_0 + edge_2_3_0_0 + edge_4_3_0_0
   + edge_5_3_0_0 + edge_6_3_0_0 + edge_7_3_0_0 + edge_9_3_0_0
   + edge_11_3_0_0 + edge_13_3_0_0 + edge_15_3_0_0 = 1
 consume_one_flow_unit_3: flow_0_3_0_0 + flow_1_3_0_0 + flow_2_3_0_0
   - flow_3_1_0_0 - flow_3_2_0_0 - flow_3_4_0_0 - flow_3_5_0_0
   - flow_3_6_0_0 - flow_3_7_0_0 - flow_3_8_0_0 - flow_3_9_0_0
   - flow_3_10_0_0 - flow_3_11_0_0 - flow_3_13_0_0 - flow_3_14_0_0
   - flow_3_15_0_0 - flow_3_16_0_0 + flow_4_3_0_0 + flow_5_3_0_0
   + flow_6_3_0_0 + flow_7_3_0_0 + flow_9_3_0_0 + flow_11_3_0_0
   + flow_13_3_0_0 + flow_15_3_0_0 = 1
 one_parent_4: edge_0_4_0_0 + edge_1_4_0_0 + edge_2_4_0_0 + edge_3_4_0_0
   + edge_5_4_0_0 + edge_6_4_0_0 + edge_7_4_0_0 + edge_9_4_0_0
   + edge_11_4_0_0 + edge_13_4_0_0 + edge_15_4_0_0 = 1
 consume_one_flow_unit_4: flow_0_4_0_0 + flow_1_4_0_0 + flow_2_4_0_0
   + flow_3_4_0_0 - flow_4_1_0_0 - flow_4_2_0_0 - flow_4_3_0_0
   - flow_4_5_0_0 - flow_4_6_0_0 - flow_4_7_0_0 - flow_4_8_0_0
   - flow_4_9_0_0 - flow_4_10_0_0 - flow_4_11_0_0 - flow_4_12_0_0
   - flow_4_13_0_0 - flow_4_14_0_0 - flow_4_15_0_0 - flow_4_16_0_0
   + flow_5_4_0_0 + flow_6_4_0_0 + flow_7_4_0_0 + flow_9_4_0_0
   + flow_11_4_0_0 + flow_13_4_0_0 + flow_15_4_0_0 = 1
 one_parent_5: edge_0_5_0_0 + edge_2_5_0_0 + edge_3_5_0_0 + edge_4_5_0_0
   + edge_6_5_0_0 + edge_7_5_0_0 + edge_9_5_0_0 + edge_13_5_0_0
   + edge_15_5_0_0 = 1
 consume_one_flow_unit_5: flow_0_5_0_0 + flow_2_5_0_0 + flow_3_5_0_0
   + flow_4_5_0_0 - flow_5_1_0_0 - flow_5_2_0_0 - flow_5_3_0_0
   - flow_5_4_0_0 - flow_5_6_0_0 - flow_5_7_0_0 - flow_5_8_0_0
   - flow_5_9_0_0 - flow_5_11_0_0 - flow_5_13_0_0 - flow_5_15_0_0
   - flow_5_16_0_0 + flow_6_5_0_0 + flow_7_5_0_0 + flow_9_5_0_0
   + flow_13_5_0_0 + flow_15_5_0_0 = 1
 one_parent_6: edge_0_6_0_0 + edge_1_6_0_0 + edge_2_6_0_0 + edge_3_6_0_0
   + edge_4_6_0_0 + edge_5_6_0_0 + edge_7_6_0_0 + edge_9_6_0_0
   + edge_11_6_0_0 + edge_13_6_0_0 + edge_15_6_0_0 = 1
 consume_one_flow_unit_6: flow_0_6_0_0 + flow_1_6_0_0 + flow_2_6_0_0
   + flow_3_6_0_0 + flow_4_6_0_0 + flow_5_6_0_0 - flow_6_1_0_0
   - flow_6_2_0_0 - flow_6_3_0_0 - flow_6_4_0_0 - flow_6_5_0_0
   - flow_6_7_0_0 - flow_6_8_0_0 - flow_6_9_0_0 - flow_6_10_0_0
   - flow_6_11_0_0 - flow_6_12_0_0 - flow_6_13_0_0 - flow_6_14_0_0
   - flow_6_15_0_0 - flow_6_16_0_0 + flow_7_6_0_0 + flow_9_6_0_0
   + flow_11_6_0_0 + flow_13_6_0_0 + flow_15_6_0_0 = 1
 one_parent_7: edge_0_7_0_0 + edge_1_7_0_0 + edge_2_7_0_0 + edge_3_7_0_0
   + edge_4_7_0_0 + edge_5_7_0_0 + edge_6_7_0_0 + edge_8_7_0_0
   + edge_9_7_0_0 + edge_11_7_0_0 + edge_13_7_0_0 + edge_15_7_0_0 = 1
 consume_one_flow_unit_7: flow_0_7_0_0 + flow_1_7_0_0 + flow_2_7_0_0
   + flow_3_7_0_0 + flow_4_7_0_0 + flow_5_7_0_0 + flow_6_7_0_0
   - flow_7_1_0_0 - flow_7_2_0_0 - flow_7_3_0_0 - flow_7_4_0_0
   - flow_7_5_0_0 - flow_7_6_0_0 - flow_7_8_0_0 - flow_7_9_0_0
   - flow_7_11_0_0 - flow_7_15_0_0 - flow_7_16_0_0 + flow_8_7_0_0
   + flow_9_7_0_0 + flow_11_7_0_0 + flow_13_7_0_0 + flow_15_7_0_0 = 1
 one_parent_8: edge_3_8_0_0 + edge_4_8_0_0 + edge_5_8_0_0 + edge_6_8_0_0
   + edge_7_8_0_0 + edge_9_8_0_0 + edge_11_8_0_0 + edge_13_8_0_0
   + edge_15_8_0_0 = 1
 consume_one_flow_unit_8: flow_3_8_0_0 + flow_4_8_0_0 + flow_5_8_0_0
   + flow_6_8_0_0 + flow_7_8_0_0 - flow_8_7_0_0 - flow_8_9_0_0
   - flow_8_11_0_0 - flow_8_13_0_0 - flow_8_14_0_0 - flow_8_15_0_0
   - flow_8_16_0_0 + flow_9_8_0_0 + flow_11_8_0_0 + flow_13_8_0_0
   + flow_15_8_0_0 = 1
 one_parent_9: edge_0_9_0_0 + edge_1_9_0_0 + edge_2_9_0_0 + edge_3_9_0_0
   + edge_4_9_0_0 + edge_5_9_0_0 + edge_6_9_0_0 + edge_7_9_0_0
   + edge_8_9_0_0 + edge_10_9_0_0 + edge_11_9_0_0 + edge_13_9_0_0
   + edge_15_9_0_0 = 1
 consume_one_flow_unit_9: flow_0_9_0_0 + flow_1_9_0_0 + flow_2_9_0_0
   + flow_3_9_0_0 + flow_4_9_0_0 + flow_5_9_0_0 + flow_6_9_0_0
   + flow_7_9_0_0 + flow_8_9_0_0 - flow_9_1_0_0 - flow_9_2_0_0
   - flow_9_3_0_0 - flow_9_4_0_0 - flow_9_5_0_0 - flow_9_6_0_0
   - flow_9_7_0_0 - flow_9_8_0_0 - flow_9_10_0_0 - flow_9_11_0_0
   - flow_9_13_0_0 - flow_9_14_0_0 - flow_9_15_0_0 - flow_9_16_0_0
   + flow_10_9_0_0 + flow_11_9_0_0 + flow_13_9_0_0 + flow_15_9_0_0 = 1
 one_parent_10: edge_3_10_0_0 + edge_4_10_0_0 + edge_6_10_0_0
   + edge_9_10_0_0 + edge_11_10_0_0 + edge_13_10_0_0 + edge_15_10_0_0 = 1
 consume_one_flow_unit_10: flow_3_10_0_0 + flow_4_10_0_0 + flow_6_10_0_0
   + flow_9_10_0_0 - flow_10_9_0_0 - flow_10_11_0_0 + flow_11_10_0_0
   + flow_13_10_0_0 + flow_15_10_0_0 = 1
 one_parent_11: edge_0_11_0_0 + edge_1_11_0_0 + edge_2_11_0_0
   + edge_3_11_0_0 + edge_4_11_0_0 + edge_5_11_0_0 + edge_6_11_0_0
   + edge_7_11_0_0 + edge_8_11_0_0 + edge_9_11_0_0 + edge_10_11_0_0
   + edge_12_11_0_0 + edge_13_11_0_0 + edge_15_11_0_0 = 1
 consume_one_flow_unit_11: flow_0_11_0_0 + flow_1_11_0_0 + flow_2_11_0_0
   + flow_3_11_0_0 + flow_4_11_0_0 + flow_5_11_0_0 + flow_6_11_0_0
   + flow_7_11_0_0 + flow_8_11_0_0 + flow_9_11_0_0 + flow_10_11_0_0
   - flow_11_2_0_0 - flow_11_3_0_0 - flow_11_4_0_0 - flow_11_6_0_0
   - flow_11_7_0_0 - flow_11_8_0_0 - flow_11_9_0_0 - flow_11_10_0_0
   - flow_11_12_0_0 - flow_11_13_0_0 - flow_11_14_0_0 - flow_11_15_0_0
   - flow_11_16_0_0 + flow_12_11_0_0 + flow_13_11_0_0 + flow_15_11_0_0 = 1
 one_parent_12: edge_4_12_0_0 + edge_6_12_0_0 + edge_11_12_0_0
   + edge_13_12_0_0 + edge_15_12_0_0 = 1
 consume_one_flow_unit_12: flow_4_12_0_0 + flow_6_12_0_0 + flow_11_12_0_0
   - flow_12_11_0_0 - flow_12_14_0_0 - flow_12_15_0_0 + flow_13_12_0_0
   + flow_15_12_0_0 = 1
 one_parent_13: edge_0_13_0_0 + edge_1_13_0_0 + edge_2_13_0_0
   + edge_3_13_0_0 + edge_4_13_0_0 + edge_5_13_0_0 + edge_6_13_0_0
   + edge_8_13_0_0 + edge_9_13_0_0 + edge_11_13_0_0 + edge_15_13_0_0 = 1
 consume_one_flow_unit_13: flow_0_13_0_0 + flow_1_13_0_0 + flow_2_13_0_0
   + flow_3_13_0_0 + flow_4_13_0_0 + flow_5_13_0_0 + flow_6_13_0_0
   + flow_8_13_0_0 + flow_9_13_0_0 + flow_11_13_0_0 - flow_13_1_0_0
   - flow_13_2_0_0 - flow_13_3_0_0 - flow_13_4_0_0 - flow_13_5_0_0
   - flow_13_6_0_0 - flow_13_7_0_0 - flow_13_8_0_0 - flow_13_9_0_0
   - flow_13_10_0_0 - flow_13_11_0_0 - flow_13_12_0_0 - flow_13_14_0_0
   - flow_13_15_0_0 - flow_13_16_0_0 + flow_15_13_0_0 = 1
 one_parent_14: edge_3_14_0_0 + edge_4_14_0_0 + edge_6_14_0_0
   + edge_8_14_0_0 + edge_9_14_0_0 + edge_11_14_0_0 + edge_12_14_0_0
   + edge_13_14_0_0 + edge_15_14_0_0 + edge_16_14_0_0 = 1
 consume_one_flow_unit_14: flow_3_14_0_0 + flow_4_14_0_0 + flow_6_14_0_0
   + flow_8_14_0_0 + flow_9_14_0_0 + flow_11_14_0_0 + flow_12_14_0_0
   + flow_13_14_0_0 - flow_14_15_0_0 - flow_14_16_0_0 + flow_15_14_0_0
   + flow_16_14_0_0 = 1
 one_parent_15: edge_0_15_0_0 + edge_2_15_0_0 + edge_3_15_0_0
   + edge_4_15_0_0 + edge_5_15_0_0 + edge_6_15_0_0 + edge_7_15_0_0
   + edge_8_15_0_0 + edge_9_15_0_0 + edge_11_15_0_0 + edge_12_15_0_0
   + edge_13_15_0_0 + edge_14_15_0_0 + edge_15_15_0_0 + edge_16_15_0_0 = 1
 consume_one_flow_unit_15: flow_0_15_0_0 + flow_2_15_0_0 + flow_3_15_0_0
   + flow_4_15_0_0 + flow_5_15_0_0 + flow_6_15_0_0 + flow_7_15_0_0
   + flow_8_15_0_0 + flow_9_15_0_0 + flow_11_15_0_0 + flow_12_15_0_0
   + flow_13_15_0_0 + flow_14_15_0_0 - flow_15_1_0_0 - flow_15_2_0_0
   - flow_15_3_0_0 - flow_15_4_0_0 - flow_15_5_0_0 - flow_15_6_0_0
   - flow_15_7_0_0 - flow_15_8_0_0 - flow_15_9_0_0 - flow_15_10_0_0
   - flow_15_11_0_0 - flow_15_12_0_0 - flow_15_13_0_0 - flow_15_14_0_0
   - flow_15_16_0_0 + flow_16_15_0_0 = 1
 one_parent_16: edge_2_16_0_0 + edge_3_16_0_0 + edge_4_16_0_0
   + edge_5_16_0_0 + edge_6_16_0_0 + edge_7_16_0_0 + edge_8_16_0_0
   + edge_9_16_0_0 + edge_11_16_0_0 + edge_13_16_0_0 + edge_14_16_0_0
   + edge_15_16_0_0 = 1
 consume_one_flow_unit_16: flow_2_16_0_0 + flow_3_16_0_0 + flow_4_16_0_0
   + flow_5_16_0_0 + flow_6_16_0_0 + flow_7_16_0_0 + flow_8_16_0_0
   + flow_9_16_0_0 + flow_11_16_0_0 + flow_13_16_0_0 + flow_14_16_0_0
   + flow_15_16_0_0 - flow_16_14_0_0 - flow_16_15_0_0 = 1
 root_flow: flow_0_1_0_0 + flow_0_2_0_0 + flow_0_3_0_0 + flow_0_4_0_0
   + flow_0_5_0_0 + flow_0_6_0_0 + flow_0_7_0_0 + flow_0_9_0_0
   + flow_0_11_0_0 + flow_0_13_0_0 + flow_0_15_0_0 = 16
 inactive_no_flow_0_1_0_0: flow_0_1_0_0 - 1000 edge_0_1_0_0 <= 0
 inactive_no_flow_0_2_0_0: flow_0_2_0_0 - 1000 edge_0_2_0_0 <= 0
 inactive_no_flow_0_3_0_0: flow_0_3_0_0 - 1000 edge_0_3_0_0 <= 0
 inactive_no_flow_0_4_0_0: flow_0_4_0_0 - 1000 edge_0_4_0_0 <= 0
 inactive_no_flow_0_5_0_0: flow_0_5_0_0 - 1000 edge_0_5_0_0 <= 0
 inactive_no_flow_0_6_0_0: flow_0_6_0_0 - 1000 edge_0_6_0_0 <= 0
 inactive_no_flow_0_7_0_0: flow_0_7_0_0 - 1000 edge_0_7_0_0 <= 0
 inactive_no_flow_0_9_0_0: flow_0_9_0_0 - 1000 edge_0_9_0_0 <= 0
 inactive_no_flow_0_11_0_0: flow_0_11_0_0 - 1000 edge_0_11_0_0 <= 0
 inactive_no_flow_0_13_0_0: flow_0_13_0_0 - 1000 edge_0_13_0_0 <= 0
 inactive_no_flow_0_15_0_0: flow_0_15_0_0 - 1000 edge_0_15_0_0 <= 0
 inactive_no_flow_1_2_0_0: flow_1_2_0_0 - 1000 edge_1_2_0_0 <= 0
 inactive_no_flow_1_3_0_0: flow_1_3_0_0 - 1000 edge_1_3_0_0 <= 0
 inactive_no_flow_1_4_0_0: flow_1_4_0_0 - 1000 edge_1_4_0_0 <= 0
 inactive_no_flow_1_6_0_0: flow_1_6_0_0 - 1000 edge_1_6_0_0 <= 0
 inactive_no_flow_1_7_0_0: flow_1_7_0_0 - 1000 edge_1_7_0_0 <= 0
 inactive_no_flow_1_9_0_0: flow_1_9_0_0 - 1000 edge_1_9_0_0 <= 0
 inactive_no_flow_1_11_0_0: flow_1_11_0_0 - 1000 edge_1_11_0_0 <= 0
 inactive_no_flow_1_13_0_0: flow_1_13_0_0 - 1000 edge_1_13_0_0 <= 0
 inactive_no_flow_2_1_0_0: flow_2_1_0_0 - 1000 edge_2_1_0_0 <= 0
 inactive_no_flow_2_3_0_0: flow_2_3_0_0 - 1000 edge_2_3_0_0 <= 0
 inactive_no_flow_2_4_0_0: flow_2_4_0_0 - 1000 edge_2_4_0_0 <= 0
 inactive_no_flow_2_5_0_0: flow_2_5_0_0 - 1000 edge_2_5_0_0 <= 0
 inactive_no_flow_2_6_0_0: flow_2_6_0_0 - 1000 edge_2_6_0_0 <= 0
 inactive_no_flow_2_7_0_0: flow_2_7_0_0 - 1000 edge_2_7_0_0 <= 0
 inactive_no_flow_2_9_0_0: flow_2_9_0_0 - 1000 edge_2_9_0_0 <= 0
 inactive_no_flow_2_11_0_0: flow_2_11_0_0 - 1000 edge_2_11_0_0 <= 0
 inactive_no_flow_2_13_0_0: flow_2_13_0_0 - 1000 edge_2_13_0_0 <= 0
 inactive_no_flow_2_15_0_0: flow_2_15_0_0 - 1000 edge_2_15_0_0 <= 0
 inactive_no_flow_2_16_0_0: flow_2_16_0_0 - 1000 edge_2_16_0_0 <= 0
 inactive_no_flow_3_1_0_0: flow_3_1_0_0 - 1000 edge_3_1_0_0 <= 0
 inactive_no_flow_3_2_0_0: flow_3_2_0_0 - 1000 edge_3_2_0_0 <= 0
 inactive_no_flow_3_4_0_0: flow_3_4_0_0 - 1000 edge_3_4_0_0 <= 0
 inactive_no_flow_3_5_0_0: flow_3_5_0_0 - 1000 edge_3_5_0_0 <= 0
 inactive_no_flow_3_6_0_0: flow_3_6_0_0 - 1000 edge_3_6_0_0 <= 0
 inactive_no_flow_3_7_0_0: flow_3_7_0_0 - 1000 edge_3_7_0_0 <= 0
 inactive_no_flow_3_8_0_0: flow_3_8_0_0 - 1000 edge_3_8_0_0 <= 0
 inactive_no_flow_3_9_0_0: flow_3_9_0_0 - 1000 edge_3_9_0_0 <= 0
 inactive_no_flow_3_10_0_0: flow_3_10_0_0 - 1000 edge_3_10_0_0 <= 0
 inactive_no_flow_3_11_0_0: flow_3_11_0_0 - 1000 edge_3_11_0_0 <= 0
 inactive_no_flow_3_13_0_0: flow_3_13_0_0 - 1000 edge_3_13_0_0 <= 0
 inactive_no_flow_3_14_0_0: flow_3_14_0_0 - 1000 edge_3_14_0_0 <= 0
 inactive_no_flow_3_15_0_0: flow_3_15_0_0 - 1000 edge_3_15_0_0 <= 0
 inactive_no_flow_3_16_0_0: flow_3_16_0_0 - 1000 edge_3_16_0_0 <= 0
 inactive_no_flow_4_1_0_0: flow_4_1_0_0 - 1000 edge_4_1_0_0 <= 0
 inactive_no_flow_4_2_0_0: flow_4_2_0_0 - 1000 edge_4_2_0_0 <= 0
 inactive_no_flow_4_3_0_0: flow_4_3_0_0 - 1000 edge_4_3_0_0 <= 0
 inactive_no_flow_4_5_0_0: flow_4_5_0_0 - 1000 edge_4_5_0_0 <= 0
 inactive_no_flow_4_6_0_0: flow_4_6_0_0 - 1000 edge_4_6_0_0 <= 0
 inactive_no_flow_4_7_0_0: flow_4_7_0_0 - 1000 edge_4_7_0_0 <= 0
 inactive_no_flow_4_8_0_0: flow_4_8_0_0 - 1000 edge_4_8_0_0 <= 0
 inactive_no_flow_4_9_0_0: flow_4_9_0_0 - 1000 edge_4_9_0_0 <= 0
 inactive_no_flow_4_10_0_0: flow_4_10_0_0 - 1000 edge_4_10_0_0 <= 0
 inactive_no_flow_4_11_0_0: flow_4_11_0_0 - 1000 edge_4_11_0_0 <= 0
 inactive_no_flow_4_12_0_0: flow_4_12_0_0 - 1000 edge_4_12_0_0 <= 0
 inactive_no_flow_4_13_0_0: flow_4_13_0_0 - 1000 edge_4_13_0_0 <= 0
 inactive_no_flow_4_14_0_0: flow_4_14_0_0 - 1000 edge_4_14_0_0 <= 0
 inactive_no_flow_4_15_0_0: flow_4_15_0_0 - 1000 edge_4_15_0_0 <= 0
 inactive_no_flow_4_16_0_0: flow_4_16_0_0 - 1000 edge_4_16_0_0 <= 0
 inactive_no_flow_5_1_0_0: flow_5_1_0_0 - 1000 edge_5_1_0_0 <= 0
 inactive_no_flow_5_2_0_0: flow_5_2_0_0 - 1000 edge_5_2_0_0 <= 0
 inactive_no_flow_5_3_0_0: flow_5_3_0_0 - 1000 edge_5_3_0_0 <= 0
 inactive_no_flow_5_4_0_0: flow_5_4_0_0 - 1000 edge_5_4_0_0 <= 0
 inactive_no_flow_5_6_0_0: flow_5_6_0_0 - 1000 edge_5_6_0_0 <= 0
 inactive_no_flow_5_7_0_0: flow_5_7_0_0 - 1000 edge_5_7_0_0 <= 0
 inactive_no_flow_5_8_0_0: flow_5_8_0_0 - 1000 edge_5_8_0_0 <= 0
 inactive_no_flow_5_9_0_0: flow_5_9_0_0 - 1000 edge_5_9_0_0 <= 0
 inactive_no_flow_5_11_0_0: flow_5_11_0_0 - 1000 edge_5_11_0_0 <= 0
 inactive_no_flow_5_13_0_0: flow_5_13_0_0 - 1000 edge_5_13_0_0 <= 0
 inactive_no_flow_5_15_0_0: flow_5_15_0_0 - 1000 edge_5_15_0_0 <= 0
 inactive_no_flow_5_16_0_0: flow_5_16_0_0 - 1000 edge_5_16_0_0 <= 0
 inactive_no_flow_6_1_0_0: flow_6_1_0_0 - 1000 edge_6_1_0_0 <= 0
 inactive_no_flow_6_2_0_0: flow_6_2_0_0 - 1000 edge_6_2_0_0 <= 0
 inactive_no_flow_6_3_0_0: flow_6_3_0_0 - 1000 edge_6_3_0_0 <= 0
 inactive_no_flow_6_4_0_0: flow_6_4_0_0 - 1000 edge_6_4_0_0 <= 0
 inactive_no_flow_6_5_0_0: flow_6_5_0_0 - 1000 edge_6_5_0_0 <= 0
 inactive_no_flow_6_7_0_0: flow_6_7_0_0 - 1000 edge_6_7_0_0 <= 0
 inactive_no_flow_6_8_0_0: flow_6_8_0_0 - 1000 edge_6_8_0_0 <= 0
 inactive_no_flow_6_9_0_0: flow_6_9_0_0 - 1000 edge_6_9_0_0 <= 0
 inactive_no_flow_6_10_0_0: flow_6_10_0_0 - 1000 edge_6_10_0_0 <= 0
 inactive_no_flow_6_11_0_0: flow_6_11_0_0 - 1000 edge_6_11_0_0 <= 0
 inactive_no_flow_6_12_0_0: flow_6_12_0_0 - 1000 edge_6_12_0_0 <= 0
 inactive_no_flow_6_13_0_0: flow_6_13_0_0 - 1000 edge_6_13_0_0 <= 0
 inactive_no_flow_6_14_0_0: flow_6_14_0_0 - 1000 edge_6_14_0_0 <= 0
 inactive_no_flow_6_15_0_0: flow_6_15_0_0 - 1000 edge_6_15_0_0 <= 0
 inactive_no_flow_6_16_0_0: flow_6_16_0_0 - 1000 edge_6_16_0_0 <= 0
 inactive_no_flow_7_1_0_0: flow_7_1_0_0 - 1000 edge_7_1_0_0 <= 0
 inactive_no_flow_7_2_0_0: flow_7_2_0_0 - 1000 edge_7_2_0_0 <= 0
 inactive_no_flow_7_3_0_0: flow_7_3_0_0 - 1000 edge_7_3_0_0 <= 0
 inactive_no_flow_7_4_0_0: flow_7_4_0_0 - 1000 edge_7_4_0_0 <= 0
 inactive_no_flow_7_5_0_0: flow_7_5_0_0 - 1000 edge_7_5_0_0 <= 0
 inactive_no_flow_7_6_0_0: flow_7_6_0_0 - 1000 edge_7_6_0_0 <= 0
 inactive_no_flow_7_8_0_0: flow_7_8_0_0 - 1000 edge_7_8_0_0 <= 0
 inactive_no_flow_7_9_0_0: flow_7_9_0_0 - 1000 edge_7_9_0_0 <= 0
 inactive_no_flow_7_11_0_0: flow_7_11_0_0 - 1000 edge_7_11_0_0 <= 0
 inactive_no_flow_7_15_0_0: flow_7_15_0_0 - 1000 edge_7_15_0_0 <= 0
 inactive_no_flow_7_16_0_0: flow_7_16_0_0 - 1000 edge_7_16_0_0 <= 0
 inactive_no_flow_8_7_0_0: flow_8_7_0_0 - 1000 edge_8_7_0_0 <= 0
 inactive_no_flow_8_9_0_0: flow_8_9_0_0 - 1000 edge_8_9_0_0 <= 0
 inactive_no_flow_8_11_0_0: flow_8_11_0_0 - 1000 edge_8_11_0_0 <= 0
 inactive_no_flow_8_13_0_0: flow_8_13_0_0 - 1000 edge_8_13_0_0 <= 0
 inactive_no_flow_8_14_0_0: flow_8_14_0_0 - 1000 edge_8_14_0_0 <= 0
 inactive_no_flow_8_15_0_0: flow_8_15_0_0 - 1000 edge_8_15_0_0 <= 0
 inactive_no_flow_8_16_0_0: flow_8_16_0_0 - 1000 edge_8_16_0_0 <= 0
 inactive_no_flow_9_1_0_0: flow_9_1_0_0 - 1000 edge_9_1_0_0 <= 0
 inactive_no_flow_9_2_0_0: flow_9_2_0_0 - 1000 edge_9_2_0_0 <= 0
 inactive_no_flow_9_3_0_0: flow_9_3_0_0 - 1000 edge_9_3_0_0 <= 0
 inactive_no_flow_9_4_0_0: flow_9_4_0_0 - 1000 edge_9_4_0_0 <= 0
 inactive_no_flow_9_5_0_0: flow_9_5_0_0 - 1000 edge_9_5_0_0 <= 0
 inactive_no_flow_9_6_0_0: flow_9_6_0_0 - 1000 edge_9_6_0_0 <= 0
 inactive_no_flow_9_7_0_0: flow_9_7_0_0 - 1000 edge_9_7_0_0 <= 0
 inactive_no_flow_9_8_0_0: flow_9_8_0_0 - 1000 edge_9_8_0_0 <= 0
 inactive_no_flow_9_10_0_0: flow_9_10_0_0 - 1000 edge_9_10_0_0 <= 0
 inactive_no_flow_9_11_0_0: flow_9_11_0_0 - 1000 edge_9_11_0_0 <= 0
 inactive_no_flow_9_13_0_0: flow_9_13_0_0 - 1000 edge_9_13_0_0 <= 0
 inactive_no_flow_9_14_0_0: flow_9_14_0_0 - 1000 edge_9_14_0_0 <= 0
 inactive_no_flow_9_15_0_0: flow_9_15_0_0 - 1000 edge_9_15_0_0 <= 0
 inactive_no_flow_9_16_0_0: flow_9_16_0_0 - 1000 edge_9_16_0_0 <= 0
 inactive_no_flow_10_9_0_0: flow_10_9_0_0 - 1000 edge_10_9_0_0 <= 0
 inactive_no_flow_10_11_0_0: flow_10_11_0_0 - 1000 edge_10_11_0_0 <= 0
 inactive_no_flow_11_2_0_0: flow_11_2_0_0 - 1000 edge_11_2_0_0 <= 0
 inactive_no_flow_11_3_0_0: flow_11_3_0_0 - 1000 edge_11_3_0_0 <= 0
 inactive_no_flow_11_4_0_0: flow_11_4_0_0 - 1000 edge_11_4_0_0 <= 0
 inactive_no_flow_11_6_0_0: flow_11_6_0_0 - 1000 edge_11_6_0_0 <= 0
 inactive_no_flow_11_7_0_0: flow_11_7_0_0 - 1000 edge_11_7_0_0 <= 0
 inactive_no_flow_11_8_0_0: flow_11_8_0_0 - 1000 edge_11_8_0_0 <= 0
 inactive_no_flow_11_9_0_0: flow_11_9_0_0 - 1000 edge_11_9_0_0 <= 0
 inactive_no_flow_11_10_0_0: flow_11_10_0_0 - 1000 edge_11_10_0_0 <= 0
 inactive_no_flow_11_12_0_0: flow_11_12_0_0 - 1000 edge_11_12_0_0 <= 0
 inactive_no_flow_11_13_0_0: flow_11_13_0_0 - 1000 edge_11_13_0_0 <= 0
 inactive_no_flow_11_14_0_0: flow_11_14_0_0 - 1000 edge_11_14_0_0 <= 0
 inactive_no_flow_11_15_0_0: flow_11_15_0_0 - 1000 edge_11_15_0_0 <= 0
 inactive_no_flow_11_16_0_0: flow_11_16_0_0 - 1000 edge_11_16_0_0 <= 0
 inactive_no_flow_12_11_0_0: flow_12_11_0_0 - 1000 edge_12_11_0_0 <= 0
 inactive_no_flow_12_14_0_0: flow_12_14_0_0 - 1000 edge_12_14_0_0 <= 0
 inactive_no_flow_12_15_0_0: flow_12_15_0_0 - 1000 edge_12_15_0_0 <= 0
 inactive_no_flow_13_1_0_0: flow_13_1_0_0 - 1000 edge_13_1_0_0 <= 0
 inactive_no_flow_13_2_0_0: flow_13_2_0_0 - 1000 edge_13_2_0_0 <= 0
 inactive_no_flow_13_3_0_0: flow_13_3_0_0 - 1000 edge_13_3_0_0 <= 0
 inactive_no_flow_13_4_0_0: flow_13_4_0_0 - 1000 edge_13_4_0_0 <= 0
 inactive_no_flow_13_5_0_0: flow_13_5_0_0 - 1000 edge_13_5_0_0 <= 0
 inactive_no_flow_13_6_0_0: flow_13_6_0_0 - 1000 edge_13_6_0_0 <= 0
 inactive_no_flow_13_7_0_0: flow_13_7_0_0 - 1000 edge_13_7_0_0 <= 0
 inactive_no_flow_13_8_0_0: flow_13_8_0_0 - 1000 edge_13_8_0_0 <= 0
 inactive_no_flow_13_9_0_0: flow_13_9_0_0 - 1000 edge_13_9_0_0 <= 0
 inactive_no_flow_13_10_0_0: flow_13_10_0_0 - 1000 edge_13_10_0_0 <= 0
 inactive_no_flow_13_11_0_0: flow_13_11_0_0 - 1000 edge_13_11_0_0 <= 0
 inactive_no_flow_13_12_0_0: flow_13_12_0_0 - 1000 edge_13_12_0_0 <= 0
 inactive_no_flow_13_14_0_0: flow_13_14_0_0 - 1000 edge_13_14_0_0 <= 0
 inactive_no_flow_13_15_0_0: flow_13_15_0_0 - 1000 edge_13_15_0_0 <= 0
 inactive_no_flow_13_16_0_0: flow_13_16_0_0 - 1000 edge_13_16_0_0 <= 0
 inactive_no_flow_14_15_0_0: flow_14_15_0_0 - 1000 edge_14_15_0_0 <= 0
 inactive_no_flow_14_16_0_0: flow_14_16_0_0 - 1000 edge_14_16_0_0 <= 0
 inactive_no_flow_15_1_0_0: flow_15_1_0_0 - 1000 edge_15_1_0_0 <= 0
 inactive_no_flow_15_2_0_0: flow_15_2_0_0 - 1000 edge_15_2_0_0 <= 0
 inactive_no_flow_15_3_0_0: flow_15_3_0_0 - 1000 edge_15_3_0_0 <= 0
 inactive_no_flow_15_4_0_0: flow_15_4_0_0 - 1000 edge_15_4_0_0 <= 0
 inactive_no_flow_15_5_0_0: flow_15_5_0_0 - 1000 edge_15_5_0_0 <= 0
 inactive_no_flow_15_6_0_0: flow_15_6_0_0 - 1000 edge_15_6_0_0 <= 0
 inactive_no_flow_15_7_0_0: flow_15_7_0_0 - 1000 edge_15_7_0_0 <= 0
 inactive_no_flow_15_8_0_0: flow_15_8_0_0 - 1000 edge_15_8_0_0 <= 0
 inactive_no_flow_15_9_0_0: flow_15_9_0_0 - 1000 edge_15_9_0_0 <= 0
 inactive_no_flow_15_10_0_0: flow_15_10_0_0 - 1000 edge_15_10_0_0 <= 0
 inactive_no_flow_15_11_0_0: flow_15_11_0_0 - 1000 edge_15_11_0_0 <= 0
 inactive_no_flow_15_12_0_0: flow_15_12_0_0 - 1000 edge_15_12_0_0 <= 0
 inactive_no_flow_15_13_0_0: flow_15_13_0_0 - 1000 edge_15_13_0_0 <= 0
 inactive_no_flow_15_14_0_0: flow_15_14_0_0 - 1000 edge_15_14_0_0 <= 0
 inactive_no_flow_15_15_0_0: flow_15_15_0_0 - 1000 edge_15_15_0_0 <= 0
 inactive_no_flow_15_16_0_0: flow_15_16_0_0 - 1000 edge_15_16_0_0 <= 0
 inactive_no_flow_16_14_0_0: flow_16_14_0_0 - 1000 edge_16_14_0_0 <= 0
 inactive_no_flow_16_15_0_0: flow_16_15_0_0 - 1000 edge_16_15_0_0 <= 0
Bounds
Binaries
 edge_0_1_0_0 edge_0_2_0_0 edge_0_3_0_0 edge_0_4_0_0 edge_0_5_0_0
 edge_0_6_0_0 edge_0_7_0_0 edge_0_9_0_0 edge_0_11_0_0 edge_0_13_0_0
 edge_0_15_0_0 edge_1_2_0_0 edge_1_3_0_0 edge_1_4_0_0 edge_1_6_0_0
 edge_1_7_0_0 edge_1_9_0_0 edge_1_11_0_0 edge_1_13_0_0 edge_2_1_0_0
 edge_2_3_0_0 edge_2_4_0_0 edge_2_5_0_0 edge_2_6_0_0 edge_2_7_0_0
 edge_2_9_0_0 edge_2_11_0_0 edge_2_13_0_0 edge_2_15_0_0 edge_2_16_0_0
 edge_3_1_0_0 edge_3_2_0_0 edge_3_4_0_0 edge_3_5_0_0 edge_3_6_0_0
 edge_3_7_0_0 edge_3_8_0_0 edge_3_9_0_0 edge_3_10_0_0 edge_3_11_0_0
 edge_3_13_0_0 edge_3_14_0_0 edge_3_15_0_0 edge_3_16_0_0 edge_4_1_0_0
 edge_4_2_0_0 edge_4_3_0_0 edge_4_5_0_0 edge_4_6_0_0 edge_4_7_0_0
 edge_4_8_0_0 edge_4_9_0_0 edge_4_10_0_0 edge_4_11_0_0 edge_4_12_0_0
 edge_4_13_0_0 edge_4_14_0_0 edge_4_15_0_0 edge_4_16_0_0 edge_5_1_0_0
 edge_5_2_0_0 edge_5_3_0_0 edge_5_4_0_0 edge_5_6_0_0 edge_5_7_0_0
 edge_5_8_0_0 edge_5_9_0_0 edge_5_11_0_0 edge_5_13_0_0 edge_5_15_0_0
 edge_5_16_0_0 edge_6_1_0_0 edge_6_2_0_0 edge_6_3_0_0 edge_6_4_0_0
 edge_6_5_0_0 edge_6_7_0_0 edge_6_8_0_0 edge_6_9_0_0 edge_6_10_0_0
 edge_6_11_0_0 edge_6_12_0_0 edge_6_13_0_0 edge_6_14_0_0 edge_6_15_0_0
 edge_6_16_0_0 edge_7_1_0_0 edge_7_2_0_0 edge_7_3_0_0 edge_7_4_0_0
 edge_7_5_0_0 edge_7_6_0_0 edge_7_8_0_0 edge_7_9_0_0 edge_7_11_0_0
 edge_7_15_0_0 edge_7_16_0_0 edge_8_7_0_0 edge_8_9_0_0 edge_8_11_0_0
 edge_8_13_0_0 edge_8_14_0_0 edge_8_15_0_0 edge_8_16_0_0 edge_9_1_0_0
 edge_9_2_0_0 edge_9_3_0_0 edge_9_4_0_0 edge_9_5_0_0 edge_9_6_0_0
 edge_9_7_0_0 edge_9_8_0_0 edge_9_10_0_0 edge_9_11_0_0 edge_9_13_0_0
 edge_9_14_0_0 edge_9_15_0_0 edge_9_16_0_0 edge_10_9_0_0 edge_10_11_0_0
 edge_11_2_0_0 edge_11_3_0_0 edge_11_4_0_0 edge_11_6_0_0 edge_11_7_0_0
 edge_11_8_0_0 edge_11_9_0_0 edge_11_10_0_0 edge_11_12_0_0 edge_11_13_0_0
 edge_11_14_0_0 edge_11_15_0_0 edge_11_16_0_0 edge_12_11_0_0 edge_12_14_0_0
 edge_12_15_0_0 edge_13_1_0_0 edge_13_2_0_0 edge_13_3_0_0 edge_13_4_0_0
 edge_13_5_0_0 edge_13_6_0_0 edge_13_7_0_0 edge_13_8_0_0 edge_13_9_0_0
 edge_13_10_0_0 edge_13_11_0_0 edge_13_12_0_0 edge_13_14_0_0 edge_13_15_0_0
 edge_13_16_0_0 edge_14_15_0_0 edge_14_16_0_0 edge_15_1_0_0 edge_15_2_0_0
 edge_15_3_0_0 edge_15_4_0_0 edge_15_5_0_0 edge_15_6_0_0 edge_15_7_0_0
 edge_15_8_0_0 edge_15_9_0_0 edge_15_10_0_0 edge_15_11_0_0 edge_15_12_0_0
 edge_15_13_0_0 edge_15_14_0_0 edge_15_15_0_0 edge_15_16_0_0 edge_16_14_0_0
 edge_16_15_0_0
End
